p cnf 388 167-37 -33 0
-37 31 0
37 33 -31 0
-38 33 0
-38 -31 0
38 -33 31 0
-39 -37 0
-39 -38 0
39 37 38 0
-40 -34 0
-40 32 0
40 34 -32 0
-41 34 0
-41 -32 0
41 -34 32 0
-42 -40 0
-42 -41 0
42 40 41 0
-43 39 0
-43 42 0
43 -39 -42 0
-44 36 0
-44 -35 0
44 -36 35 0
-45 -36 0
-45 35 0
45 36 -35 0
-46 -44 0
-46 -45 0
46 44 45 0
-43 46 0
-48 21 0
-48 11 0
48 -21 -11 0
-49 22 0
-49 48 0
49 -22 -48 0
-50 -22 0
-50 -48 0
50 22 48 0
-51 -49 0
-51 -50 0
51 49 50 0
52 -12 0
52 51 0
-52 12 -51 0
-53 12 0
-53 -51 0
53 -12 51 0
-54 52 0
-54 -53 0
54 -52 53 0
-55 2 0
-55 54 0
55 -2 -54 0
-56 -2 0
-56 -54 0
56 2 54 0
-57 -55 0
-57 -56 0
57 55 56 0
-58 -21 0
-58 -11 0
58 21 11 0
59 -48 0
59 -58 0
-59 48 58 0
-60 1 0
-60 59 0
60 -1 -59 0
-61 -1 0
-61 -59 0
61 1 59 0
-62 -60 0
-62 -61 0
62 60 61 0
-63 57 0
-63 62 0
63 -57 -62 0
-64 -12 0
-64 -49 0
64 12 49 0
65 -50 0
65 -64 0
-65 50 64 0
-66 23 0
-66 -65 0
66 -23 65 0
-67 -23 0
-67 65 0
67 23 -65 0
-68 -66 0
-68 -67 0
68 66 67 0
69 -13 0
69 68 0
-69 13 -68 0
-70 13 0
-70 -68 0
70 -13 68 0
-71 69 0
-71 -70 0
71 -69 70 0
-72 3 0
-72 71 0
72 -3 -71 0
-73 -3 0
-73 -71 0
73 3 71 0
-74 -72 0
-74 -73 0
74 72 73 0
-75 63 0
-75 74 0
75 -63 -74 0
-76 -13 0
-76 -66 0
76 13 66 0
77 -67 0
77 -76 0
-77 67 76 0
-78 24 0
-78 -77 0
78 -24 77 0
-79 -24 0
-79 77 0
79 24 -77 0
-80 -78 0
-80 -79 0
80 78 79 0
81 -14 0
81 80 0
-81 14 -80 0
-82 14 0
-82 -80 0
82 -14 80 0
-83 81 0
-83 -82 0
83 -81 82 0
-84 4 0
-84 83 0
84 -4 -83 0
-85 -4 0
-85 -83 0
85 4 83 0
-86 -84 0
-86 -85 0
86 84 85 0
-87 75 0
-87 86 0
87 -75 -86 0
-88 -14 0
-88 -78 0
88 14 78 0
89 -79 0
89 -88 0
-89 79 88 0
-90 25 0
-90 -89 0
90 -25 89 0
-91 -25 0
-91 89 0
91 25 -89 0
-92 -90 0
-92 -91 0
92 90 91 0
93 -15 0
93 92 0
-93 15 -92 0
-94 15 0
-94 -92 0
94 -15 92 0
-95 93 0
-95 -94 0
95 -93 94 0
-96 5 0
-96 95 0
96 -5 -95 0
-97 -5 0
-97 -95 0
97 5 95 0
-98 -96 0
-98 -97 0
98 96 97 0
-99 87 0
-99 98 0
99 -87 -98 0
-100 -15 0
-100 -90 0
100 15 90 0
101 -91 0
101 -100 0
-101 91 100 0
-102 26 0
-102 -101 0
102 -26 101 0
-103 -26 0
-103 101 0
103 26 -101 0
-104 -102 0
-104 -103 0
104 102 103 0
105 -16 0
105 104 0
-105 16 -104 0
-106 16 0
-106 -104 0
106 -16 104 0
-107 105 0
-107 -106 0
107 -105 106 0
-108 6 0
-108 107 0
108 -6 -107 0
-109 -6 0
-109 -107 0
109 6 107 0
-110 -108 0
-110 -109 0
110 108 109 0
-111 99 0
-111 110 0
111 -99 -110 0
-112 -16 0
-112 -102 0
112 16 102 0
113 -103 0
113 -112 0
-113 103 112 0
-114 27 0
-114 -113 0
114 -27 113 0
-115 -27 0
-115 113 0
115 27 -113 0
-116 -114 0
-116 -115 0
116 114 115 0
117 -17 0
117 116 0
-117 17 -116 0
-118 17 0
-118 -116 0
118 -17 116 0
-119 117 0
-119 -118 0
119 -117 118 0
-120 7 0
-120 119 0
120 -7 -119 0
-121 -7 0
-121 -119 0
121 7 119 0
-122 -120 0
-122 -121 0
122 120 121 0
-123 111 0
-123 122 0
123 -111 -122 0
-124 -17 0
-124 -114 0
124 17 114 0
125 -115 0
125 -124 0
-125 115 124 0
-126 28 0
-126 -125 0
126 -28 125 0
-127 -28 0
-127 125 0
127 28 -125 0
-128 -126 0
-128 -127 0
128 126 127 0
129 -18 0
129 128 0
-129 18 -128 0
-130 18 0
-130 -128 0
130 -18 128 0
-131 129 0
-131 -130 0
131 -129 130 0
-132 8 0
-132 131 0
132 -8 -131 0
-133 -8 0
-133 -131 0
133 8 131 0
-134 -132 0
-134 -133 0
134 132 133 0
-135 123 0
-135 134 0
135 -123 -134 0
-136 -18 0
-136 -126 0
136 18 126 0
137 -127 0
137 -136 0
-137 127 136 0
-138 29 0
-138 -137 0
138 -29 137 0
-139 -29 0
-139 137 0
139 29 -137 0
-140 -138 0
-140 -139 0
140 138 139 0
141 -19 0
141 140 0
-141 19 -140 0
-142 19 0
-142 -140 0
142 -19 140 0
-143 141 0
-143 -142 0
143 -141 142 0
-144 9 0
-144 143 0
144 -9 -143 0
-145 -9 0
-145 -143 0
145 9 143 0
-146 -144 0
-146 -145 0
146 144 145 0
-147 135 0
-147 146 0
147 -135 -146 0
-148 -19 0
-148 -138 0
148 19 138 0
149 -139 0
149 -148 0
-149 139 148 0
-150 -30 0
-150 149 0
150 30 -149 0
-151 30 0
-151 -149 0
151 -30 149 0
-152 -150 0
-152 -151 0
152 150 151 0
153 -20 0
153 152 0
-153 20 -152 0
-154 20 0
-154 -152 0
154 -20 152 0
-155 153 0
-155 -154 0
155 -153 154 0
-156 10 0
-156 155 0
156 -10 -155 0
-157 -10 0
-157 -155 0
157 10 155 0
-158 -156 0
-158 -157 0
158 156 157 0
-159 147 0
-159 158 0
159 -147 -158 0
-160 -34 0
-160 -159 0
160 34 159 0
-161 34 0
-161 159 0
161 -34 -159 0
-162 -160 0
-162 -161 0
162 160 161 0
-163 33 0
-163 162 0
163 -33 -162 0
-163 -45 0
-165 32 0
-165 31 0
165 -32 -31 0
-35 -165 0
-167 -32 0
-167 -31 0
167 32 31 0
35 -167 0
